\ENCODING=ISO-8859-1
\Problem name: Initial

Minimize
 obj: 5 x1 + 6 x2 + 7 x3 + 5 x4 + 1000 x5
Subject To
 c1:  15 x1 - x6  = 0
 c2:  5 x2 - x7  = 0
 c3:  10 x3 - x8  = 0
 c4:  15 x1 - x9  = 0
 c5:  - x10  = 0
 c6:  5 x2 + 10 x3 + 5 x4 - x5 - x11  = 0
 c7:  - x12  = 0
 c8:  x1  = 1
 c9:  x2  = 1
 c10: x3  = 1
 c11: x4  = 1
Bounds
 0 <= x6 <= 20
 0 <= x7 <= 10
 0 <= x8 <= 10
 0 <= x9 <= 20
 0 <= x10 <= 40
 0 <= x11 <= 10
 0 <= x12 <= 30
End
